1076,4034
2063,2571
514,8582
1791,5728
7733,8381
4743,7411
4990,2232
2017,1537
3417,6448
9703,7244
6298,2109
1891,5051
5286,3242
5094,4917
5293,5033
5985,2269
5453,3080
4815,1651
612,1004
1073,5110
4673,2450
407,1118
7615,7470
5173,5397
1760,4143
8937,9220
2306,994
6795,8043
3898,2333
8710,7591
2426,6480
2193,3218
9874,3300
946,9120
1572,3457
7952,6522
4596,5102
6824,6485
5338,3111
1326,2184
3268,7329
8677,7488
3600,5531
2161,8219
9743,557
2389,1775
2057,5405
5837,2628
558,270
3921,1565

9934
9666
9346
12331
12730
12762
12737
10781
11829
